228 300 18 39 38 18 40 17 37 46 16 22 37 22 24 18 20 18 25 48 13 35 15 13 49 16 38 26 31 34 29 39 15 37 29 45 46 20 11 34 15 19 46 44 31 21 13 43 32 29 41 37 15 48 43 13 13 32 29 36 15 48 24 22 37 43 17 34 12 20 17 20 30 14 15 10 27 19 44 49 38 36 38 43 35 30 46 38 11 26 26 16 23 40 31 11 35 38 35 37 48 42 49 29 46 14 32 25 23 27 25 12 14 12 45 39 32 42 28 35 17 44 44 32 34 24 34 18 11 18 47 10 12 46 32 50 11 13 24 24 30 40 26 34 42 22 24 26 13 42 12 22 36 46 44 21 21 27 31 22 38 29 25 40 24 47 39 27 50 13 41 31 45 18 16 36 30 30 13 35 21 16 47 49 13 43 21 25 21 42 39 49 21 13 38 37 11 29 14 12 34 47 35 28 15 41 15 37 20 21 22 34 27 20 34 32 14 46 47 26 37 36 24 50 41 14 37 45 33 43 